Using license file /home/benedond/gurobi.lic
Using gurobi.env file
Set parameter Threads to value 1
Academic license - for non-commercial use only
Changed value of parameter TimeLimit to 300.0
   Prev: inf  Min: 0.0  Max: inf  Default: inf
Gurobi Optimizer version 9.0.1 build v9.0.1rc0 (linux64)
Optimize a model with 4527 rows, 4301 columns and 21017 nonzeros
Model fingerprint: 0x2ab03a05
Variable types: 90 continuous, 4211 integer (4211 binary)
Coefficient statistics:
  Matrix range     [2e-01, 5e+02]
  Objective range  [6e-03, 2e-01]
  Bounds range     [1e+00, 1e+00]
  RHS range        [1e+00, 2e+03]
Found heuristic solution: objective 4.2637300
Presolve removed 104 rows and 90 columns
Presolve time: 0.08s
Presolved: 4423 rows, 4211 columns, 20668 nonzeros
Variable types: 89 continuous, 4122 integer (4122 binary)

Root relaxation: objective 1.778523e+00, 4877 iterations, 0.27 seconds

    Nodes    |    Current Node    |     Objective Bounds      |     Work
 Expl Unexpl |  Obj  Depth IntInf | Incumbent    BestBd   Gap | It/Node Time

     0     0    1.77852    0  275    4.26373    1.77852  58.3%     -    0s
H    0     0                       4.1931550    1.77852  57.6%     -    0s
H    0     0                       3.3831550    1.77852  47.4%     -    0s
     0     0    1.86841    0  242    3.38316    1.86841  44.8%     -    1s
H    0     0                       3.2763800    1.86841  43.0%     -    1s
     0     0    1.86849    0  241    3.27638    1.86849  43.0%     -    1s
     0     0    1.90967    0  259    3.27638    1.90967  41.7%     -    1s
H    0     0                       3.0826350    1.90967  38.1%     -    1s
     0     0    1.91106    0  245    3.08264    1.91106  38.0%     -    1s
     0     0    1.96600    0  264    3.08264    1.96600  36.2%     -    1s
     0     0    2.00112    0  257    3.08264    2.00112  35.1%     -    2s
     0     0    2.04095    0  275    3.08264    2.04095  33.8%     -    2s
H    0     0                       3.0645350    2.04095  33.4%     -    2s
     0     0    2.05935    0  294    3.06454    2.05935  32.8%     -    2s
     0     0    2.06625    0  252    3.06454    2.06625  32.6%     -    2s
     0     0    2.06744    0  320    3.06454    2.06744  32.5%     -    2s
     0     0    2.06785    0  293    3.06454    2.06785  32.5%     -    2s
     0     0    2.06800    0  292    3.06454    2.06800  32.5%     -    2s
     0     0    2.06823    0  261    3.06454    2.06823  32.5%     -    2s
     0     0    2.06828    0  292    3.06454    2.06828  32.5%     -    2s
     0     0    2.08260    0  289    3.06454    2.08260  32.0%     -    3s
     0     0    2.08556    0  288    3.06454    2.08556  31.9%     -    3s
     0     0    2.08569    0  272    3.06454    2.08569  31.9%     -    3s
     0     0    2.09025    0  254    3.06454    2.09025  31.8%     -    3s
     0     0    2.09201    0  286    3.06454    2.09201  31.7%     -    3s
     0     0    2.09216    0  289    3.06454    2.09216  31.7%     -    3s
     0     0    2.10241    0  259    3.06454    2.10241  31.4%     -    3s
     0     0    2.10359    0  286    3.06454    2.10359  31.4%     -    3s
     0     0    2.10414    0  249    3.06454    2.10414  31.3%     -    3s
     0     0    2.10433    0  264    3.06454    2.10433  31.3%     -    3s
     0     0    2.11309    0  314    3.06454    2.11309  31.0%     -    4s
     0     0    2.11619    0  319    3.06454    2.11619  30.9%     -    4s
     0     0    2.11688    0  300    3.06454    2.11688  30.9%     -    4s
     0     0    2.11711    0  311    3.06454    2.11711  30.9%     -    4s
     0     0    2.12285    0  242    3.06454    2.12285  30.7%     -    4s
     0     0    2.12515    0  251    3.06454    2.12515  30.7%     -    4s
     0     0    2.12579    0  244    3.06454    2.12579  30.6%     -    4s
     0     0    2.12595    0  295    3.06454    2.12595  30.6%     -    4s
     0     0    2.12981    0  258    3.06454    2.12981  30.5%     -    4s
     0     0    2.13102    0  258    3.06454    2.13102  30.5%     -    4s
     0     0    2.13120    0  273    3.06454    2.13120  30.5%     -    4s
     0     0    2.13486    0  294    3.06454    2.13486  30.3%     -    5s
     0     0    2.13571    0  271    3.06454    2.13571  30.3%     -    5s
     0     0    2.13615    0  293    3.06454    2.13615  30.3%     -    5s
     0     0    2.13625    0  293    3.06454    2.13625  30.3%     -    5s
     0     0    2.13945    0  303    3.06454    2.13945  30.2%     -    5s
     0     0    2.14031    0  279    3.06454    2.14031  30.2%     -    5s
     0     0    2.14083    0  301    3.06454    2.14083  30.1%     -    5s
     0     0    2.14096    0  313    3.06454    2.14096  30.1%     -    5s
     0     0    2.14402    0  238    3.06454    2.14402  30.0%     -    5s
     0     0    2.14648    0  270    3.06454    2.14648  30.0%     -    5s
     0     0    2.14678    0  261    3.06454    2.14678  29.9%     -    5s
     0     0    2.14719    0  226    3.06454    2.14719  29.9%     -    5s
     0     0    2.14721    0  212    3.06454    2.14721  29.9%     -    5s
     0     0    2.15130    0  272    3.06454    2.15130  29.8%     -    5s
     0     0    2.15341    0  289    3.06454    2.15341  29.7%     -    6s
     0     0    2.15409    0  253    3.06454    2.15409  29.7%     -    6s
     0     0    2.15467    0  307    3.06454    2.15467  29.7%     -    6s
     0     0    2.15496    0  293    3.06454    2.15496  29.7%     -    6s
     0     0    2.15504    0  279    3.06454    2.15504  29.7%     -    6s
     0     0    2.15674    0  254    3.06454    2.15674  29.6%     -    6s
     0     0    2.15717    0  284    3.06454    2.15717  29.6%     -    6s
     0     0    2.15754    0  268    3.06454    2.15754  29.6%     -    6s
     0     0    2.15797    0  269    3.06454    2.15797  29.6%     -    6s
     0     0    2.15802    0  270    3.06454    2.15802  29.6%     -    6s
     0     0    2.15984    0  259    3.06454    2.15984  29.5%     -    6s
     0     0    2.16050    0  270    3.06454    2.16050  29.5%     -    6s
     0     0    2.16112    0  285    3.06454    2.16112  29.5%     -    6s
     0     0    2.16121    0  292    3.06454    2.16121  29.5%     -    6s
     0     0    2.16297    0  252    3.06454    2.16297  29.4%     -    7s
     0     0    2.16354    0  328    3.06454    2.16354  29.4%     -    7s
     0     0    2.16402    0  298    3.06454    2.16402  29.4%     -    7s
     0     0    2.16408    0  289    3.06454    2.16408  29.4%     -    7s
     0     0    2.16506    0  275    3.06454    2.16506  29.4%     -    7s
     0     0    2.16506    0  270    3.06454    2.16506  29.4%     -    9s
H    0     0                       2.8002449    2.16506  22.7%     -   13s
     0     2    2.16506    0  251    2.80024    2.16506  22.7%     -   13s
     3     5    2.16966    2  249    2.80024    2.16966  22.5%   866   15s
    47    49    2.20079   37  171    2.80024    2.17440  22.3%   400   20s
   118   120    2.43144   91  129    2.80024    2.17440  22.3%   407   25s
   263   246    2.36082   38  153    2.80024    2.17720  22.2%   288   30s
H  300   278                       2.7827250    2.17720  21.8%   281   31s
   397   364    2.31224   35  188    2.78273    2.17842  21.7%   269   35s
   511   475    2.72032  106  270    2.78273    2.17842  21.7%   252   43s
H  512   452                       2.7425750    2.17842  20.6%   252   44s
   514   453    2.30331   28  217    2.74258    2.17842  20.6%   251   45s
   531   464    2.32302   12  341    2.74258    2.19839  19.8%   243   50s
H  539   446                       2.7425750    2.21445  19.3%   239   58s
   545   450    2.39609   50  325    2.74258    2.22565  18.8%   237   60s
   560   460    2.67230  152  323    2.74258    2.24758  18.0%   230   65s
   576   470    2.74258  121  352    2.74258    2.26424  17.4%   224   70s
   590   480    2.36616   65  395    2.74258    2.27407  17.1%   218   75s
   603   488    2.74258  163  404    2.74258    2.28087  16.8%   214   80s
   618   498    2.36170   47  274    2.74258    2.28744  16.6%   209   85s
H  632   483                       2.7417750    2.29058  16.5%   313   89s
   634   484    2.52468   84  228    2.74178    2.29058  16.5%   312   90s
   648   493    2.55770  100  253    2.74178    2.29102  16.4%   305   95s
H  653   472                       2.7319350    2.29411  16.0%   303  102s
   662   478    2.45991   76  271    2.73194    2.29922  15.8%   299  105s
   675   486    2.30371    8  278    2.73194    2.30371  15.7%   293  110s
   678   488    2.36916   33  270    2.73194    2.30453  15.6%   292  116s
   680   490    2.53264   83  270    2.73194    2.30457  15.6%   291  120s
   681   492    2.30467   26  262    2.73194    2.30467  15.6%   333  125s
   683   494    2.30480   27  252    2.73194    2.30480  15.6%   334  133s
   685   495    2.30482   28  248    2.73194    2.30482  15.6%   335  135s
   690   498    2.31266   30  170    2.73194    2.30501  15.6%   338  140s
   697   503    2.30567   34  317    2.73194    2.30545  15.6%   341  145s
H  707   483                       2.7297300    2.30766  15.5%   346  154s
   710   487    2.37993   40  210    2.72973    2.30766  15.5%   350  155s
   726   497    2.38130   48  172    2.72973    2.30766  15.5%   357  160s
H  734   476                       2.6944000    2.30766  14.4%   360  164s
   736   479    2.36790   53  219    2.69440    2.30766  14.4%   363  165s
   755   492    2.34094   63  250    2.69440    2.30766  14.4%   372  170s
   761   496    2.35471   66  178    2.69440    2.30766  14.4%   376  175s
H  785   487                       2.6809600    2.30766  13.9%   386  182s
   801   497    2.40378   86  194    2.68096    2.30766  13.9%   392  185s
H  815   483                       2.6809600    2.30766  13.9%   394  189s
   825   490    2.39446   98  177    2.68096    2.30766  13.9%   396  190s
H  842   479                       2.6779600    2.30766  13.8%   398  192s
   868   493    2.54530  119  141    2.67796    2.30766  13.8%   405  195s
   908   514    2.55253  139  134    2.67796    2.30766  13.8%   410  200s
  1002   512    2.54198   41   86    2.67796    2.30766  13.8%   400  205s
H 1033   512                       2.6769650    2.30766  13.8%   404  210s
H 1060   510                       2.6769650    2.30766  13.8%   407  214s
  1068   517    2.46207   74  116    2.67696    2.30766  13.8%   409  215s
H 1087   506                       2.6769650    2.30766  13.8%   410  217s
  1120   525     cutoff  100         2.67696    2.30766  13.8%   413  220s
  1194   554     cutoff  137         2.67696    2.30766  13.8%   409  225s
  1251   546    2.30774   39  275    2.67696    2.30774  13.8%   404  231s
  1269   558    2.35535   48  233    2.67696    2.31112  13.7%   410  235s
  1297   574     cutoff   62         2.67696    2.31112  13.7%   420  240s
  1343   603    2.43333   85  156    2.67696    2.31112  13.7%   428  245s
  1399   638    2.44942  113  121    2.67696    2.31112  13.7%   435  250s
  1474   678    2.43661  151  146    2.67696    2.31112  13.7%   436  255s
  1554   683    2.43000   31  155    2.67696    2.31127  13.7%   437  260s
  1654   756    2.45483  113  121    2.67696    2.31127  13.7%   425  265s
  1807   853    2.38123   30  132    2.67696    2.31179  13.6%   408  270s
  1900   942    2.49710  101  113    2.67696    2.31179  13.6%   401  275s
  1975   981    2.32379   36  261    2.67696    2.31184  13.6%   399  285s
  2024  1030    2.38565   69  171    2.67696    2.31184  13.6%   400  290s
  2103  1109    2.49152  127  126    2.67696    2.31184  13.6%   395  295s

Cutting planes:
  Gomory: 3
  Cover: 30
  Implied bound: 2
  Projected implied bound: 1
  Clique: 17
  MIR: 248
  StrongCG: 5
  Flow cover: 510
  GUB cover: 2
  Zero half: 1
  Mod-K: 1
  RLT: 10
  Relax-and-lift: 164

Explored 2229 nodes (891484 simplex iterations) in 300.00 seconds
Thread count was 1 (of 4 available processors)

Solution count 10: 2.67696 2.67697 2.67796 ... 2.74258

Time limit reached
Best objective 2.676964982204e+00, best bound 2.312207473872e+00, gap 13.6258%
